p tw 100 16501 2 
1 3 
1 4 
1 5 
1 6 
1 7 
1 8 
1 9 
1 10 
1 11 
1 12 
1 13 
1 14 
1 15 
1 16 
1 17 
1 18 
1 19 
1 20 
1 21 
1 22 
1 23 
1 30 
1 42 
1 50 
1 55 
1 63 
1 66 
1 75 
1 87 
1 91 
1 93 
1 100 
2 3 
2 4 
2 5 
2 6 
2 7 
2 8 
2 9 
2 10 
2 11 
2 12 
2 13 
2 22 
2 24 
2 25 
2 26 
2 27 
2 28 
2 29 
2 30 
2 31 
2 32 
2 33 
2 36 
2 49 
2 56 
2 62 
2 77 
2 78 
2 84 
2 92 
2 95 
2 100 
3 4 
3 5 
3 6 
3 7 
3 8 
3 9 
3 10 
3 11 
3 12 
3 14 
3 17 
3 24 
3 27 
3 34 
3 35 
3 36 
3 37 
3 38 
3 39 
3 40 
3 41 
3 42 
3 44 
3 51 
3 58 
3 59 
3 60 
3 61 
3 62 
3 63 
3 64 
4 5 
4 6 
4 7 
4 8 
4 9 
4 10 
4 11 
4 12 
4 15 
4 17 
4 25 
4 28 
4 34 
4 36 
4 43 
4 44 
4 45 
4 46 
4 47 
4 48 
4 49 
4 50 
4 52 
4 65 
4 66 
4 67 
4 68 
4 69 
4 70 
4 71 
5 6 
5 7 
5 8 
5 9 
5 10 
5 11 
5 12 
5 15 
5 16 
5 26 
5 29 
5 35 
5 37 
5 43 
5 51 
5 52 
5 53 
5 54 
5 55 
5 56 
5 57 
5 58 
5 65 
5 72 
5 73 
5 74 
5 75 
5 76 
5 77 
6 7 
6 8 
6 9 
6 10 
6 11 
6 12 
6 18 
6 22 
6 30 
6 33 
6 38 
6 41 
6 43 
6 45 
6 53 
6 58 
6 59 
6 65 
6 69 
6 78 
6 79 
6 80 
6 81 
6 85 
6 88 
6 90 
6 93 
6 97 
7 8 
7 9 
7 10 
7 11 
7 12 
7 14 
7 21 
7 31 
7 33 
7 39 
7 46 
7 48 
7 53 
7 54 
7 59 
7 63 
7 66 
7 71 
7 72 
7 77 
7 82 
7 83 
7 84 
7 85 
7 89 
7 94 
7 99 
8 9 
8 10 
8 11 
8 12 
8 16 
8 19 
8 27 
8 32 
8 37 
8 41 
8 45 
8 47 
8 56 
8 61 
8 67 
8 70 
8 75 
8 78 
8 82 
8 83 
8 86 
8 87 
8 88 
8 89 
8 96 
8 99 
9 10 
9 11 
9 12 
9 19 
9 21 
9 31 
9 32 
9 39 
9 40 
9 44 
9 49 
9 52 
9 55 
9 60 
9 67 
9 72 
9 73 
9 79 
9 80 
9 86 
9 90 
9 91 
9 92 
9 97 
9 98 
10 11 
10 12 
10 13 
10 20 
10 28 
10 34 
10 40 
10 46 
10 51 
10 57 
10 64 
10 68 
10 74 
10 76 
10 79 
10 80 
10 83 
10 86 
10 88 
10 93 
10 94 
10 95 
10 99 
10 100 
11 12 
11 20 
11 23 
11 26 
11 29 
11 35 
11 38 
11 47 
11 48 
11 60 
11 61 
11 68 
11 71 
11 76 
11 81 
11 84 
11 85 
11 87 
11 90 
11 91 
11 95 
11 96 
11 98 
12 18 
12 23 
12 24 
12 25 
12 42 
12 50 
12 54 
12 57 
12 62 
12 64 
12 69 
12 70 
12 73 
12 74 
12 81 
12 82 
12 89 
12 92 
12 94 
12 96 
12 97 
12 98 
13 14 
13 15 
13 16 
13 17 
13 18 
13 19 
13 20 
13 21 
13 22 
13 23 
13 24 
13 25 
13 26 
13 27 
13 28 
13 29 
13 30 
13 31 
13 32 
13 33 
13 34 
13 51 
13 68 
13 74 
13 80 
13 83 
13 86 
13 93 
13 94 
13 95 
14 15 
14 16 
14 17 
14 18 
14 19 
14 20 
14 21 
14 22 
14 23 
14 24 
14 31 
14 34 
14 35 
14 36 
14 37 
14 38 
14 39 
14 40 
14 41 
14 42 
14 46 
14 54 
14 59 
14 66 
14 72 
14 82 
14 83 
14 84 
14 85 
15 16 
15 17 
15 18 
15 19 
15 20 
15 21 
15 22 
15 23 
15 25 
15 29 
15 34 
15 37 
15 43 
15 44 
15 45 
15 46 
15 47 
15 48 
15 49 
15 50 
15 58 
15 65 
15 72 
15 73 
15 74 
15 75 
15 76 
15 77 
16 17 
16 18 
16 19 
16 20 
16 21 
16 22 
16 23 
16 26 
16 27 
16 35 
16 37 
16 43 
16 47 
16 51 
16 52 
16 53 
16 54 
16 55 
16 56 
16 57 
16 67 
16 78 
16 82 
16 86 
16 87 
16 88 
16 89 
17 18 
17 19 
17 20 
17 21 
17 22 
17 23 
17 27 
17 28 
17 36 
17 44 
17 51 
17 52 
17 58 
17 59 
17 60 
17 61 
17 62 
17 63 
17 64 
17 65 
17 66 
17 67 
17 68 
17 69 
17 70 
17 71 
18 19 
18 20 
18 21 
18 22 
18 23 
18 25 
18 30 
18 38 
18 42 
18 45 
18 53 
18 57 
18 59 
18 62 
18 65 
18 69 
18 73 
18 78 
18 79 
18 80 
18 81 
18 82 
18 94 
18 96 
18 98 
19 20 
19 21 
19 22 
19 23 
19 31 
19 32 
19 39 
19 41 
19 44 
19 45 
19 52 
19 56 
19 61 
19 70 
19 73 
19 75 
19 79 
19 83 
19 86 
19 90 
19 91 
19 92 
19 96 
19 99 
20 21 
20 22 
20 23 
20 28 
20 29 
20 35 
20 40 
20 46 
20 48 
20 57 
20 60 
20 64 
20 68 
20 76 
20 79 
20 81 
20 84 
20 87 
20 88 
20 90 
20 96 
20 99 
20 100 
21 22 
21 23 
21 32 
21 33 
21 39 
21 40 
21 48 
21 49 
21 53 
21 55 
21 60 
21 63 
21 67 
21 71 
21 72 
21 77 
21 80 
21 89 
21 94 
21 97 
21 98 
21 99 
22 23 
22 33 
22 36 
22 41 
22 43 
22 49 
22 56 
22 58 
22 62 
22 69 
22 77 
22 78 
22 84 
22 85 
22 88 
22 90 
22 92 
22 93 
22 95 
22 97 
22 100 
23 24 
23 26 
23 38 
23 47 
23 50 
23 54 
23 61 
23 64 
23 70 
23 71 
23 74 
23 76 
23 81 
23 85 
23 89 
23 91 
23 92 
23 95 
23 97 
23 98 
24 25 
24 26 
24 27 
24 28 
24 29 
24 30 
24 31 
24 32 
24 33 
24 34 
24 35 
24 36 
24 37 
24 38 
24 39 
24 40 
24 41 
24 42 
24 50 
24 54 
24 64 
24 70 
24 74 
24 81 
24 89 
24 92 
24 97 
25 26 
25 27 
25 28 
25 29 
25 30 
25 31 
25 32 
25 33 
25 34 
25 42 
25 43 
25 44 
25 45 
25 46 
25 47 
25 48 
25 49 
25 50 
25 57 
25 62 
25 69 
25 73 
25 82 
25 94 
25 96 
25 98 
26 27 
26 28 
26 29 
26 30 
26 31 
26 32 
26 33 
26 35 
26 38 
26 43 
26 47 
26 51 
26 52 
26 53 
26 54 
26 55 
26 56 
26 57 
26 61 
26 71 
26 76 
26 85 
26 91 
26 95 
26 98 
27 28 
27 29 
27 30 
27 31 
27 32 
27 33 
27 37 
27 44 
27 47 
27 51 
27 58 
27 59 
27 60 
27 61 
27 62 
27 63 
27 64 
27 67 
27 78 
27 82 
27 86 
27 87 
27 88 
27 89 
28 29 
28 30 
28 31 
28 32 
28 33 
28 36 
28 40 
28 46 
28 52 
28 57 
28 64 
28 65 
28 66 
28 67 
28 68 
28 69 
28 70 
28 71 
28 76 
28 79 
28 88 
28 99 
28 100 
29 30 
29 31 
29 32 
29 33 
29 35 
29 37 
29 48 
29 58 
29 60 
29 65 
29 68 
29 72 
29 73 
29 74 
29 75 
29 76 
29 77 
29 81 
29 84 
29 87 
29 90 
29 96 
30 31 
30 32 
30 33 
30 38 
30 42 
30 45 
30 50 
30 53 
30 55 
30 59 
30 63 
30 65 
30 66 
30 75 
30 78 
30 79 
30 80 
30 81 
30 87 
30 91 
30 93 
30 100 
31 32 
31 33 
31 39 
31 44 
31 46 
31 52 
31 54 
31 59 
31 66 
31 72 
31 73 
31 79 
31 82 
31 83 
31 84 
31 85 
31 86 
31 90 
31 91 
31 92 
32 33 
32 40 
32 41 
32 45 
32 49 
32 55 
32 56 
32 60 
32 61 
32 67 
32 70 
32 72 
32 75 
32 80 
32 83 
32 96 
32 97 
32 98 
32 99 
33 39 
33 41 
33 43 
33 48 
33 53 
33 58 
33 63 
33 69 
33 71 
33 77 
33 85 
33 88 
33 89 
33 90 
33 93 
33 94 
33 97 
33 99 
34 35 
34 36 
34 37 
34 38 
34 39 
34 40 
34 41 
34 42 
34 43 
34 44 
34 45 
34 46 
34 47 
34 48 
34 49 
34 50 
34 51 
34 68 
34 74 
34 80 
34 83 
34 86 
34 93 
34 94 
34 95 
35 36 
35 37 
35 38 
35 39 
35 40 
35 41 
35 42 
35 43 
35 48 
35 51 
35 52 
35 53 
35 54 
35 55 
35 56 
35 57 
35 60 
35 68 
35 81 
35 84 
35 87 
35 90 
35 96 
36 37 
36 38 
36 39 
36 40 
36 41 
36 42 
36 49 
36 52 
36 56 
36 62 
36 65 
36 66 
36 67 
36 68 
36 69 
36 70 
36 71 
36 77 
36 78 
36 84 
36 92 
36 95 
36 100 
37 38 
37 39 
37 40 
37 41 
37 42 
37 47 
37 58 
37 65 
37 67 
37 72 
37 73 
37 74 
37 75 
37 76 
37 77 
37 78 
37 82 
37 86 
37 87 
37 88 
37 89 
38 39 
38 40 
38 41 
38 42 
38 45 
38 47 
38 53 
38 59 
38 61 
38 65 
38 71 
38 76 
38 78 
38 79 
38 80 
38 81 
38 85 
38 91 
38 95 
38 98 
39 40 
39 41 
39 42 
39 44 
39 48 
39 52 
39 53 
39 63 
39 71 
39 73 
39 77 
39 79 
39 86 
39 89 
39 90 
39 91 
39 92 
39 94 
39 99 
40 41 
40 42 
40 46 
40 49 
40 55 
40 57 
40 60 
40 64 
40 67 
40 72 
40 76 
40 79 
40 80 
40 88 
40 97 
40 98 
40 99 
40 100 
41 42 
41 43 
41 45 
41 56 
41 58 
41 61 
41 69 
41 70 
41 75 
41 83 
41 85 
41 88 
41 90 
41 93 
41 96 
41 97 
41 99 
42 50 
42 55 
42 57 
42 62 
42 63 
42 66 
42 69 
42 73 
42 75 
42 82 
42 87 
42 91 
42 93 
42 94 
42 96 
42 98 
42 100 
43 44 
43 45 
43 46 
43 47 
43 48 
43 49 
43 50 
43 51 
43 52 
43 53 
43 54 
43 55 
43 56 
43 57 
43 58 
43 69 
43 85 
43 88 
43 90 
43 93 
43 97 
44 45 
44 46 
44 47 
44 48 
44 49 
44 50 
44 51 
44 52 
44 58 
44 59 
44 60 
44 61 
44 62 
44 63 
44 64 
44 73 
44 79 
44 86 
44 90 
44 91 
44 92 
45 46 
45 47 
45 48 
45 49 
45 50 
45 53 
45 56 
45 59 
45 61 
45 65 
45 70 
45 75 
45 78 
45 79 
45 80 
45 81 
45 83 
45 96 
45 99 
46 47 
46 48 
46 49 
46 50 
46 54 
46 57 
46 59 
46 64 
46 66 
46 72 
46 76 
46 79 
46 82 
46 83 
46 84 
46 85 
46 88 
46 99 
46 100 
47 48 
47 49 
47 50 
47 61 
47 67 
47 71 
47 76 
47 78 
47 82 
47 85 
47 86 
47 87 
47 88 
47 89 
47 91 
47 95 
47 98 
48 49 
48 50 
48 53 
48 60 
48 63 
48 68 
48 71 
48 77 
48 81 
48 84 
48 87 
48 89 
48 90 
48 94 
48 96 
48 99 
49 50 
49 55 
49 56 
49 60 
49 62 
49 67 
49 72 
49 77 
49 78 
49 80 
49 84 
49 92 
49 95 
49 97 
49 98 
49 100 
50 54 
50 55 
50 63 
50 64 
50 66 
50 70 
50 74 
50 75 
50 81 
50 87 
50 89 
50 91 
50 92 
50 93 
50 97 
50 100 
51 52 
51 53 
51 54 
51 55 
51 56 
51 57 
51 58 
51 59 
51 60 
51 61 
51 62 
51 63 
51 64 
51 68 
51 74 
51 80 
51 83 
51 86 
51 93 
51 94 
51 95 
52 53 
52 54 
52 55 
52 56 
52 57 
52 65 
52 66 
52 67 
52 68 
52 69 
52 70 
52 71 
52 73 
52 79 
52 86 
52 90 
52 91 
52 92 
53 54 
53 55 
53 56 
53 57 
53 59 
53 63 
53 65 
53 71 
53 77 
53 78 
53 79 
53 80 
53 81 
53 89 
53 94 
53 99 
54 55 
54 56 
54 57 
54 59 
54 64 
54 66 
54 70 
54 72 
54 74 
54 81 
54 82 
54 83 
54 84 
54 85 
54 89 
54 92 
54 97 
55 56 
55 57 
55 60 
55 63 
55 66 
55 67 
55 72 
55 75 
55 80 
55 87 
55 91 
55 93 
55 97 
55 98 
55 100 
56 57 
56 61 
56 62 
56 70 
56 75 
56 77 
56 78 
56 83 
56 84 
56 92 
56 95 
56 96 
56 99 
56 100 
57 62 
57 64 
57 69 
57 73 
57 76 
57 79 
57 82 
57 88 
57 94 
57 96 
57 98 
57 99 
57 100 
58 59 
58 60 
58 61 
58 62 
58 63 
58 64 
58 65 
58 69 
58 72 
58 73 
58 74 
58 75 
58 76 
58 77 
58 85 
58 88 
58 90 
58 93 
58 97 
59 60 
59 61 
59 62 
59 63 
59 64 
59 65 
59 66 
59 72 
59 78 
59 79 
59 80 
59 81 
59 82 
59 83 
59 84 
59 85 
60 61 
60 62 
60 63 
60 64 
60 67 
60 68 
60 72 
60 80 
60 81 
60 84 
60 87 
60 90 
60 96 
60 97 
60 98 
61 62 
61 63 
61 64 
61 70 
61 71 
61 75 
61 76 
61 83 
61 85 
61 91 
61 95 
61 96 
61 98 
61 99 
62 63 
62 64 
62 69 
62 73 
62 77 
62 78 
62 82 
62 84 
62 92 
62 94 
62 95 
62 96 
62 98 
62 100 
63 64 
63 66 
63 71 
63 75 
63 77 
63 87 
63 89 
63 91 
63 93 
63 94 
63 99 
63 100 
64 70 
64 74 
64 76 
64 79 
64 81 
64 88 
64 89 
64 92 
64 97 
64 99 
64 100 
65 66 
65 67 
65 68 
65 69 
65 70 
65 71 
65 72 
65 73 
65 74 
65 75 
65 76 
65 77 
65 78 
65 79 
65 80 
65 81 
66 67 
66 68 
66 69 
66 70 
66 71 
66 72 
66 75 
66 82 
66 83 
66 84 
66 85 
66 87 
66 91 
66 93 
66 100 
67 68 
67 69 
67 70 
67 71 
67 72 
67 78 
67 80 
67 82 
67 86 
67 87 
67 88 
67 89 
67 97 
67 98 
68 69 
68 70 
68 71 
68 74 
68 80 
68 81 
68 83 
68 84 
68 86 
68 87 
68 90 
68 93 
68 94 
68 95 
68 96 
69 70 
69 71 
69 73 
69 82 
69 85 
69 88 
69 90 
69 93 
69 94 
69 96 
69 97 
69 98 
70 71 
70 74 
70 75 
70 81 
70 83 
70 89 
70 92 
70 96 
70 97 
70 99 
71 76 
71 77 
71 85 
71 89 
71 91 
71 94 
71 95 
71 98 
71 99 
72 73 
72 74 
72 75 
72 76 
72 77 
72 80 
72 82 
72 83 
72 84 
72 85 
72 97 
72 98 
73 74 
73 75 
73 76 
73 77 
73 79 
73 82 
73 86 
73 90 
73 91 
73 92 
73 94 
73 96 
73 98 
74 75 
74 76 
74 77 
74 80 
74 81 
74 83 
74 86 
74 89 
74 92 
74 93 
74 94 
74 95 
74 97 
75 76 
75 77 
75 83 
75 87 
75 91 
75 93 
75 96 
75 99 
75 100 
76 77 
76 79 
76 85 
76 88 
76 91 
76 95 
76 98 
76 99 
76 100 
77 78 
77 84 
77 89 
77 92 
77 94 
77 95 
77 99 
77 100 
78 79 
78 80 
78 81 
78 82 
78 84 
78 86 
78 87 
78 88 
78 89 
78 92 
78 95 
78 100 
79 80 
79 81 
79 86 
79 88 
79 90 
79 91 
79 92 
79 99 
79 100 
80 81 
80 83 
80 86 
80 93 
80 94 
80 95 
80 97 
80 98 
81 84 
81 87 
81 89 
81 90 
81 92 
81 96 
81 97 
82 83 
82 84 
82 85 
82 86 
82 87 
82 88 
82 89 
82 94 
82 96 
82 98 
83 84 
83 85 
83 86 
83 93 
83 94 
83 95 
83 96 
83 99 
84 85 
84 87 
84 90 
84 92 
84 95 
84 96 
84 100 
85 88 
85 90 
85 91 
85 93 
85 95 
85 97 
85 98 
86 87 
86 88 
86 89 
86 90 
86 91 
86 92 
86 93 
86 94 
86 95 
87 88 
87 89 
87 90 
87 91 
87 93 
87 96 
87 100 
88 89 
88 90 
88 93 
88 97 
88 99 
88 100 
89 92 
89 94 
89 97 
89 99 
90 91 
90 92 
90 93 
90 96 
90 97 
91 92 
91 93 
91 95 
91 98 
91 100 
92 95 
92 97 
92 100 
93 94 
93 95 
93 97 
93 100 
94 95 
94 96 
94 98 
94 99 
95 98 
95 100 
96 98 
96 99 
97 98 
99 100 
